name="inithx.i.2";
nr_vertices=210;
nr_edges=5116;
neighborhoods=[{16,26,34,35,36,37,53,65,66,91,100,101,102,103,116,119,123,127,136,137,138,151,159,168,171,172,173,181,191,192,193,198,201},{14,15,33,38,69,74,75,89,96,97,98,105,112,123,124,135,148,149,150,154,158,164,166,171,176,177,181,198,199,200,207,209},{14,15,33,45,74,75,88,96,97,98,112,123,124,126,135,139,148,149,150,158,160,161,166,171,178,181,194,198,199,200,204,207},{14,33,57,74,75,78,80,96,97,98,106,112,123,124,135,142,148,149,150,156,158,166,169,171,181,189,198,199,200,205,206,207},{14,15,21,22,33,74,75,76,96,97,98,99,112,123,124,128,135,140,148,149,150,158,166,171,181,183,198,199,200,207,208},{14,15,33,54,74,75,87,96,97,98,99,112,114,115,123,124,129,135,148,149,150,152,158,166,171,175,181,198,199,200,207},{14,15,33,54,74,75,79,87,96,97,98,99,112,118,123,124,135,148,149,150,152,155,158,166,171,181,198,199,200,207},{14,15,33,54,74,75,96,97,98,99,112,114,117,123,124,125,135,148,149,150,158,166,171,180,181,182,198,199,200,207},{14,15,33,74,75,96,97,98,99,112,122,123,124,135,148,149,150,158,166,171,172,181,190,191,197,198,199,200,207},{14,15,33,42,74,75,96,97,98,104,112,123,124,135,148,149,150,158,166,167,171,174,181,184,198,199,200,207},{14,15,33,71,72,73,74,75,84,96,97,98,112,123,124,135,148,149,150,158,166,171,181,198,199,200,207},{16,34,35,36,50,53,100,101,102,103,123,136,137,151,159,171,172,173,181,191,192,193,198,201},{14,16,36,53,96,97,100,101,102,123,135,137,148,151,171,172,173,181,191,192,193,198},{14,33,74,75,95,96,97,98,124,135,148,149,150,171,181,198,199,200,207},{1,2,3,4,5,6,7,8,9,10,12,13,15,17,18,19,20,21,22,23,24,25,27,29,30,32,33,38,39,40,41,42,43,45,46,49,54,55,56,57,58,59,60,68,69,71,72,73,74,75,76,78,79,80,81,82,83,84,85,86,87,88,89,90,92,95,96,97,98,99,104,105,106,107,108,109,110,111,112,114,115,117,118,120,121,122,124,125,126,128,129,130,131,132,133,134,135,139,140,141,142,143,144,145,146,148,149,150,152,154,155,156,157,158,160,161,163,164,165,166,167,169,170,174,175,176,177,178,179,180,182,183,184,185,186,187,188,189,190,194,195,196,197,198,199,200,204,205,206,207,208,209},{1,2,4,5,6,7,8,9,10,14,19,20,21,22,23,24,25,27,29,30,33,38,39,41,42,43,45,46,49,53,54,55,58,59,68,69,71,72,73,74,75,76,79,81,82,83,84,87,88,89,90,92,95,96,97,98,99,101,102,104,105,107,108,109,110,112,114,115,117,118,120,121,122,123,124,125,126,128,129,130,131,132,135,139,140,141,143,144,145,146,148,149,150,152,154,155,158,160,161,163,164,166,167,170,171,172,174,175,176,177,178,179,180,181,182,183,184,185,186,187,188,190,191,192,194,195,196,197,198,199,200,204,207,208,209},{0,11,12,17,18,26,28,31,34,35,36,37,40,44,47,48,50,51,52,53,56,60,61,62,63,64,65,66,67,70,77,86,91,93,94,100,101,102,103,111,113,116,119,123,127,133,134,136,137,138,147,151,153,157,159,162,165,168,171,172,173,181,191,192,193,201,202,203},{14,16,18,33,34,35,36,40,53,56,96,97,98,100,101,102,123,135,136,137,148,151,159,171,172,173,181,191,192,193,198,201},{14,16,17,34,35,36,40,53,56,96,97,98,100,101,102,123,135,136,137,148,151,159,171,172,173,181,191,192,193,198,201},{14,15,20,33,54,74,75,96,97,98,99,112,114,117,123,124,125,135,143,148,149,150,158,166,171,181,182,198,199,200,207},{14,15,19,33,54,74,75,96,97,98,99,112,114,117,123,124,125,135,143,148,149,150,158,166,171,181,182,198,199,200,207},{4,14,15,22,33,74,75,76,96,97,98,99,112,123,124,128,135,140,148,149,150,158,166,171,181,183,198,199,200,207,208},{4,14,15,21,33,74,75,76,96,97,98,99,112,123,124,128,135,140,148,149,150,158,166,171,181,183,198,199,200,207,208},{14,15,24,33,39,74,75,96,97,98,112,123,124,131,135,145,148,149,150,158,163,166,170,171,181,186,187,198,199,200,207},{14,15,23,33,39,74,75,96,97,98,112,123,124,131,135,145,148,149,150,158,163,166,170,171,181,186,187,198,199,200,207},{14,15,33,54,74,75,87,96,97,98,99,112,114,123,124,135,148,149,150,152,158,166,171,175,181,182,188,198,199,200,207},{0,16,34,35,36,37,53,65,100,101,102,103,116,123,136,137,138,151,159,168,171,172,173,181,191,192,193,198,201},{14,15,33,42,74,75,96,97,98,104,110,112,123,124,135,148,149,150,158,166,167,171,174,181,184,198,199,200,207},{16,34,35,36,53,77,100,101,102,103,113,123,136,137,138,151,153,159,171,172,173,181,191,192,193,198,201,202,203},{14,15,30,33,74,75,96,97,98,112,123,124,135,139,148,149,150,158,160,166,171,181,194,198,199,200,204,207},{14,15,29,33,74,75,96,97,98,112,123,124,135,139,148,149,150,158,160,166,171,181,194,198,199,200,204,207},{16,34,35,36,53,91,100,101,102,103,113,123,136,137,138,151,159,171,172,173,181,191,192,193,198,201},{14,33,60,74,75,85,96,97,98,124,133,135,148,149,150,157,165,171,181,198,199,200,207},{1,2,3,4,5,6,7,8,9,10,13,14,15,17,19,20,21,22,23,24,25,27,29,30,32,38,39,41,42,43,45,46,49,54,55,56,57,58,59,60,68,69,71,72,73,74,75,76,78,79,80,81,82,83,84,85,86,87,88,89,90,92,95,96,97,98,99,104,105,106,107,108,109,110,111,112,114,115,117,118,120,121,122,124,125,126,128,129,130,131,132,133,134,135,139,140,141,142,143,144,145,146,148,149,150,152,154,155,156,157,158,160,161,163,164,165,166,167,169,170,174,175,176,177,178,179,180,182,183,184,185,186,187,188,189,190,194,195,196,197,198,199,200,204,205,206,207,208,209},{0,11,16,17,18,26,28,31,35,36,37,40,44,47,48,50,51,52,53,56,61,62,63,64,65,66,67,70,74,77,91,93,94,96,97,100,101,102,103,113,116,119,123,127,135,136,137,138,147,148,149,150,151,153,159,162,168,171,172,173,181,191,192,193,198,199,200,201,202,203,207},{0,11,16,17,18,26,28,31,34,36,37,40,44,47,48,50,51,52,53,56,61,62,63,64,65,66,67,70,74,77,91,93,94,96,100,101,102,103,113,116,119,123,127,136,137,138,147,148,149,150,151,153,159,162,168,171,172,173,181,191,192,193,198,199,200,201,202,203,207},{0,11,12,16,17,18,26,28,31,34,35,37,40,44,47,48,50,51,52,53,56,61,62,63,64,65,66,67,70,77,91,93,94,100,101,102,103,113,116,119,123,127,136,137,138,147,151,153,159,162,168,171,172,173,181,191,192,193,201,202,203},{0,16,26,34,35,36,53,65,66,100,101,102,103,116,119,123,127,136,137,138,151,159,168,171,172,173,181,191,192,193,198,201},{1,14,15,33,69,74,75,89,96,97,98,105,112,123,124,135,148,149,150,154,158,164,166,171,176,177,181,198,199,200,207,209},{14,15,23,24,33,74,75,96,97,98,112,123,124,131,135,145,148,149,150,158,163,166,170,171,181,186,187,198,199,200,207},{14,16,17,18,34,35,36,53,56,96,97,100,101,102,123,135,136,137,148,151,159,171,172,173,181,191,192,193,198,201},{14,15,33,54,58,74,75,87,96,97,98,99,112,114,123,124,135,148,149,150,152,158,166,171,175,181,198,199,200,207},{9,14,15,27,33,74,75,96,97,98,104,110,112,123,124,135,148,149,150,158,166,167,171,174,181,184,198,199,200,207},{14,15,33,54,68,74,75,96,97,98,99,112,114,123,124,125,135,148,149,150,158,166,171,181,182,196,198,199,200,207},{16,34,35,36,53,77,100,101,102,103,113,123,136,137,138,147,151,153,159,171,172,173,181,191,192,193,198,201,202,203},{2,14,15,33,74,75,96,97,98,112,123,124,135,139,148,149,150,158,160,161,166,171,178,181,194,198,199,200,204,207},{14,15,33,74,75,76,92,96,97,98,99,112,123,124,135,140,148,149,150,158,166,171,181,183,198,199,200,207,208},{16,34,35,36,53,67,100,101,102,103,113,123,136,137,138,151,159,162,171,172,173,181,191,192,193,198,201,202},{16,34,35,36,53,63,100,101,102,103,113,123,136,137,138,151,159,171,172,173,181,191,192,193,198,201,202},{14,15,33,74,75,96,97,98,101,112,123,124,135,148,149,150,158,166,171,172,181,191,192,198,199,200,207},{11,16,34,35,36,52,53,64,100,101,102,103,123,136,137,151,159,171,172,173,181,191,192,193,198,201},{16,34,35,36,53,94,100,101,102,103,113,123,136,137,151,159,171,172,173,181,191,192,193,198,201,202},{16,34,35,36,50,53,64,100,101,102,103,123,136,137,151,159,171,172,173,181,191,192,193,198,201},{0,11,12,15,16,17,18,26,28,31,34,35,36,37,40,44,47,48,50,51,52,56,60,61,62,63,64,65,66,67,70,77,85,86,91,93,94,99,100,101,102,103,111,112,113,116,119,123,127,133,134,136,137,138,147,151,153,157,158,159,162,165,166,168,171,172,173,181,191,192,193,201,202,203},{5,6,7,14,15,19,20,25,33,41,43,58,68,74,75,79,87,96,97,98,99,107,112,114,115,117,118,120,123,124,125,129,130,135,143,144,148,149,150,152,155,158,166,171,175,180,181,182,188,196,198,199,200,207},{14,15,33,59,74,75,96,97,98,104,109,112,121,123,124,135,141,148,149,150,158,166,167,171,174,179,181,184,185,195,198,199,200,207},{14,16,17,18,33,34,35,36,40,53,75,96,97,98,100,101,102,123,135,136,137,148,151,159,171,172,173,181,191,192,193,198,201},{3,14,33,74,75,78,80,96,97,98,106,112,123,124,135,142,148,149,150,156,158,166,169,171,181,189,198,199,200,205,206,207},{14,15,33,41,54,74,75,87,96,97,98,99,112,114,123,124,135,148,149,150,152,158,166,171,175,181,182,198,199,200,207},{14,15,33,55,74,75,96,97,98,104,112,123,124,135,141,148,149,150,158,166,167,171,174,179,181,185,195,198,199,200,207},{14,16,32,33,53,74,75,85,96,97,98,100,124,133,135,137,148,149,150,151,157,165,171,173,181,193,198,199,200,207},{16,34,35,36,53,67,100,101,102,103,113,123,136,137,138,151,153,159,162,171,172,173,181,191,192,193,198,201,202,203},{16,34,35,36,53,77,100,101,102,103,113,123,136,137,138,151,153,159,162,171,172,173,181,191,192,193,198,201,202,203},{16,34,35,36,48,53,100,101,102,103,113,123,136,137,138,151,159,171,172,173,181,191,192,193,198,201,202},{16,34,35,36,50,52,53,100,101,102,103,123,136,137,151,159,171,172,173,181,191,192,193,198,201},{0,16,26,34,35,36,37,53,66,100,101,102,103,116,119,123,127,136,137,138,151,159,168,171,172,173,181,191,192,193,198,201},{0,16,34,35,36,37,53,65,100,101,102,103,116,119,123,127,136,137,138,151,159,168,171,172,173,181,191,192,193,198,201},{16,34,35,36,47,53,61,100,101,102,103,113,123,136,137,138,151,153,159,162,171,172,173,181,191,192,193,198,201,202,203},{14,15,33,43,54,74,75,96,97,98,99,112,114,123,124,125,135,148,149,150,158,166,171,181,182,196,198,199,200,207},{1,14,15,33,38,74,75,89,96,97,98,105,112,123,124,135,148,149,150,154,158,166,171,181,198,199,200,207,209},{16,34,35,36,53,93,100,101,102,103,113,123,136,137,138,151,159,171,172,173,181,191,192,193,198,201,202},{10,14,15,33,72,74,75,96,97,98,112,123,124,135,148,149,150,158,166,171,181,198,199,200,207},{10,14,15,33,71,74,75,96,97,98,112,123,124,135,148,149,150,158,166,171,181,198,199,200,207},{10,14,15,33,74,75,84,96,97,98,112,123,124,135,148,149,150,158,166,171,181,198,199,200,207},{1,2,3,4,5,6,7,8,9,10,13,14,15,19,20,21,22,23,24,25,27,29,30,32,33,34,35,38,39,41,42,43,45,46,49,54,55,57,58,59,60,68,69,71,72,73,75,76,78,79,80,81,82,83,84,85,86,87,88,89,90,92,95,96,97,98,99,103,104,105,106,107,108,109,110,111,112,113,114,115,117,118,120,121,122,124,125,126,128,129,130,131,132,133,134,135,136,138,139,140,141,142,143,144,145,146,148,149,150,152,154,155,156,157,158,159,160,161,163,164,165,166,167,169,170,174,175,176,177,178,179,180,182,183,184,185,186,187,188,189,190,194,195,196,197,198,199,200,201,202,204,205,206,207,208,209},{1,2,3,4,5,6,7,8,9,10,13,14,15,19,20,21,22,23,24,25,27,29,30,32,33,38,39,41,42,43,45,46,49,54,55,56,57,58,59,60,68,69,71,72,73,74,76,78,79,80,81,82,83,84,85,86,87,88,89,90,92,95,96,97,98,99,104,105,106,107,108,109,110,111,112,114,115,117,118,120,121,122,124,125,126,128,129,130,131,132,133,134,135,139,140,141,142,143,144,145,146,148,149,150,152,154,155,156,157,158,160,161,163,164,165,166,167,169,170,174,175,176,177,178,179,180,182,183,184,185,186,187,188,189,190,194,195,196,197,198,199,200,204,205,206,207,208,209},{4,14,15,21,22,33,46,74,75,81,82,83,92,96,97,98,99,112,123,124,128,132,135,140,148,149,150,158,166,171,181,183,198,199,200,207,208},{16,28,34,35,36,44,53,62,100,101,102,103,113,123,136,137,138,147,151,153,159,162,171,172,173,181,191,192,193,198,201,202,203},{3,14,33,57,74,75,80,96,97,98,106,112,123,124,135,142,148,149,150,156,158,166,169,171,181,189,198,199,200,205,206,207},{6,14,15,33,54,74,75,87,96,97,98,99,112,118,123,124,135,148,149,150,152,155,158,166,171,181,198,199,200,207},{3,14,33,57,74,75,78,96,97,98,106,112,123,124,135,142,148,149,150,158,166,169,171,181,198,199,200,205,206,207},{14,15,33,74,75,76,96,97,98,99,112,123,124,132,135,140,148,149,150,158,166,171,181,183,198,199,200,207,208},{14,15,33,74,75,76,83,96,97,98,99,112,123,124,135,148,149,150,158,166,171,181,183,198,199,200,207},{14,15,33,74,75,76,82,96,97,98,99,112,123,124,135,148,149,150,158,166,171,181,183,198,199,200,207},{10,14,15,33,73,74,75,96,97,98,112,123,124,135,148,149,150,158,166,171,181,198,199,200,207},{14,32,33,53,60,74,75,96,97,98,124,133,135,148,149,150,151,157,165,171,181,198,199,200,207},{14,16,33,53,74,75,96,97,98,100,123,124,135,148,149,150,151,171,181,198,199,200,207},{5,6,14,15,25,33,41,54,58,74,75,79,96,97,98,99,107,112,114,115,118,120,123,124,129,130,135,144,148,149,150,152,155,158,166,171,175,181,182,188,198,199,200,207},{2,14,15,33,74,75,90,96,97,98,108,112,123,124,126,135,139,146,148,149,150,158,160,161,166,171,178,181,194,198,199,200,204,207},{1,14,15,33,38,69,74,75,96,97,98,105,112,123,124,135,148,149,150,154,158,164,166,171,176,177,181,198,199,200,207,209},{14,15,33,74,75,88,96,97,98,108,112,123,124,126,135,139,146,148,149,150,158,160,161,166,171,181,194,198,199,200,207},{0,16,31,34,35,36,53,100,101,102,103,113,116,123,136,137,138,151,159,171,172,173,181,191,192,193,198,201,202},{14,15,33,46,74,75,76,96,97,98,99,112,123,124,135,140,148,149,150,158,166,171,181,183,198,199,200,207,208},{16,34,35,36,53,70,100,101,102,103,113,123,136,137,138,151,159,171,172,173,181,191,192,193,198,201,202},{16,34,35,36,51,53,100,101,102,103,113,123,136,137,151,159,171,172,173,181,191,192,193,198,201,202},{13,14,15,33,74,75,96,97,98,112,123,124,135,148,149,150,158,166,171,181,198,199,200,207},{1,2,3,4,5,6,7,8,9,10,12,13,14,15,17,18,19,20,21,22,23,24,25,27,29,30,32,33,34,35,38,39,40,41,42,43,45,46,49,54,55,56,57,58,59,60,68,69,71,72,73,74,75,76,78,79,80,81,82,83,84,85,86,87,88,89,90,92,95,97,98,99,104,105,106,107,108,109,110,111,112,114,115,117,118,120,121,122,124,125,126,128,129,130,131,132,133,134,135,139,140,141,142,143,144,145,146,148,149,150,152,154,155,156,157,158,160,161,163,164,165,166,167,169,170,174,175,176,177,178,179,180,182,183,184,185,186,187,188,189,190,194,195,196,197,198,199,200,201,204,205,206,207,208,209},{1,2,3,4,5,6,7,8,9,10,12,13,14,15,17,18,19,20,21,22,23,24,25,27,29,30,32,33,34,38,39,40,41,42,43,45,46,49,54,55,56,57,58,59,60,68,69,71,72,73,74,75,76,78,79,80,81,82,83,84,85,86,87,88,89,90,92,95,96,98,99,104,105,106,107,108,109,110,111,112,114,115,117,118,120,121,122,124,125,126,128,129,130,131,132,133,134,135,139,140,141,142,143,144,145,146,148,149,150,152,154,155,156,157,158,160,161,163,164,165,166,167,169,170,174,175,176,177,178,179,180,182,183,184,185,186,187,188,189,190,194,195,196,197,198,199,200,204,205,206,207,208,209},{1,2,3,4,5,6,7,8,9,10,13,14,15,17,18,19,20,21,22,23,24,25,27,29,30,32,33,38,39,41,42,43,45,46,49,54,55,56,57,58,59,60,68,69,71,72,73,74,75,76,78,79,80,81,82,83,84,85,86,87,88,89,90,92,95,96,97,99,104,105,106,107,108,109,110,111,112,114,115,117,118,120,121,122,124,125,126,128,129,130,131,132,133,134,135,139,140,141,142,143,144,145,146,148,149,150,152,154,155,156,157,158,160,161,163,164,165,166,167,169,170,174,175,176,177,178,179,180,182,183,184,185,186,187,188,189,190,194,195,196,197,198,199,200,204,205,206,207,208,209},{4,5,6,7,8,14,15,19,20,21,22,25,33,41,43,46,53,54,58,68,74,75,76,79,81,82,83,87,92,96,97,98,101,102,107,112,114,115,117,118,120,122,123,124,125,128,129,130,132,135,140,143,144,148,149,150,152,155,158,166,171,172,175,180,181,182,183,188,190,191,192,196,197,198,199,200,207,208},{0,11,12,16,17,18,26,28,31,34,35,36,37,40,44,47,48,50,51,52,53,56,60,61,62,63,64,65,66,67,70,77,86,91,93,94,101,102,103,111,113,116,119,123,127,133,134,136,137,138,147,151,153,157,159,162,165,168,171,172,173,181,191,192,193,201,202,203},{0,11,12,15,16,17,18,26,28,31,34,35,36,37,40,44,47,48,49,50,51,52,53,56,61,62,63,64,65,66,67,70,77,91,93,94,99,100,102,103,112,113,116,119,123,127,136,137,138,147,151,153,158,159,162,166,168,171,172,173,181,191,192,193,201,202,203},{0,11,12,15,16,17,18,26,28,31,34,35,36,37,40,44,47,48,50,51,52,53,56,61,62,63,64,65,66,67,70,77,91,93,94,99,100,101,103,112,113,116,119,123,127,136,137,138,147,151,153,158,159,162,166,168,171,172,173,181,191,192,193,201,202,203},{0,11,16,26,28,31,34,35,36,37,44,47,48,50,51,52,53,61,62,63,64,65,66,67,70,74,77,91,93,94,100,101,102,113,116,119,123,127,136,137,138,147,149,150,151,153,159,162,168,171,172,173,181,191,192,193,198,199,200,201,202,203,207},{9,14,15,27,33,42,55,59,74,75,96,97,98,109,110,112,121,123,124,135,141,148,149,150,158,166,167,171,174,179,181,184,185,195,198,199,200,207},{1,14,15,33,38,69,74,75,89,96,97,98,112,123,124,135,148,149,150,154,158,164,166,171,176,177,181,198,199,200,207,209},{3,14,33,57,74,75,78,80,96,97,98,112,123,124,135,142,148,149,150,156,158,166,169,171,181,189,198,199,200,205,206,207},{14,15,33,54,74,75,87,96,97,98,99,112,114,115,120,123,124,135,148,149,150,152,158,166,171,175,181,198,199,200,207},{14,15,33,74,75,88,90,96,97,98,112,123,124,126,135,139,146,148,149,150,158,160,161,166,171,181,194,198,199,200,207},{14,15,33,55,74,75,96,97,98,104,112,121,123,124,135,141,148,149,150,158,166,167,171,174,181,184,185,198,199,200,207},{14,15,27,33,42,74,75,96,97,98,104,112,123,124,135,148,149,150,158,166,167,171,174,181,184,198,199,200,207},{14,16,33,53,74,75,96,97,98,100,123,124,135,137,148,149,150,151,171,181,198,199,200,207},{1,2,3,4,5,6,7,8,9,10,14,15,19,20,21,22,23,24,25,27,29,30,33,38,39,41,42,43,45,46,49,53,54,55,57,58,59,68,69,71,72,73,74,75,76,78,79,80,81,82,83,84,87,88,89,90,92,95,96,97,98,99,101,102,104,105,106,107,108,109,110,114,115,117,118,120,121,122,123,124,125,126,128,129,130,131,132,135,139,140,141,142,143,144,145,146,148,149,150,152,154,155,156,158,160,161,163,164,166,167,169,170,171,172,174,175,176,177,178,179,180,181,182,183,184,185,186,187,188,189,190,191,192,194,195,196,197,198,199,200,204,205,206,207,208,209},{16,28,31,34,35,36,44,47,48,51,53,61,62,63,67,70,74,77,91,93,94,100,101,102,103,123,136,137,138,147,149,150,151,153,159,162,171,172,173,181,191,192,193,198,199,200,201,202,203,207},{5,7,14,15,19,20,25,33,41,43,54,58,68,74,75,87,96,97,98,99,107,112,115,117,120,123,124,125,129,135,143,144,148,149,150,152,158,166,171,175,180,181,182,188,196,198,199,200,207},{5,14,15,33,54,74,75,87,96,97,98,99,107,112,114,120,123,124,129,130,135,144,148,149,150,152,158,166,171,175,181,198,199,200,207},{0,16,26,34,35,36,37,53,65,66,91,100,101,102,103,119,123,127,136,137,138,151,159,168,171,172,173,181,191,192,193,198,201},{7,14,15,19,20,33,54,74,75,96,97,98,99,112,114,123,124,125,135,143,148,149,150,158,166,171,180,181,182,198,199,200,207},{6,14,15,33,54,74,75,79,87,96,97,98,99,112,123,124,130,135,144,148,149,150,152,155,158,166,171,181,198,199,200,207},{0,16,34,35,36,37,53,65,66,100,101,102,103,116,123,127,136,137,138,151,159,168,171,172,173,181,191,192,193,198,201},{14,15,33,54,74,75,87,96,97,98,99,107,112,114,115,123,124,135,148,149,150,152,158,166,171,181,198,199,200,207},{14,15,33,55,74,75,96,97,98,104,109,112,123,124,135,141,148,149,150,158,166,167,171,174,181,184,198,199,200,207},{8,14,15,33,74,75,96,97,98,99,112,123,124,135,148,149,150,158,166,171,172,181,190,191,197,198,199,200,207},{0,1,2,3,4,5,6,7,8,9,10,11,12,15,16,17,18,19,20,21,22,23,24,25,26,27,28,29,30,31,34,35,36,37,38,39,40,41,42,43,44,45,46,47,48,49,50,51,52,53,54,55,56,57,58,59,61,62,63,64,65,66,67,68,69,70,71,72,73,76,77,78,79,80,81,82,83,84,86,87,88,89,90,91,92,93,94,95,99,100,101,102,103,104,105,106,107,108,109,110,111,112,113,114,115,116,117,118,119,120,121,122,125,126,127,128,129,130,131,132,134,136,137,138,139,140,141,142,143,144,145,146,147,151,152,153,154,155,156,158,159,160,161,162,163,164,166,167,168,169,170,171,172,173,174,175,176,177,178,179,180,181,182,183,184,185,186,187,188,189,190,191,192,193,194,195,196,197,201,202,203,204,205,206,208,209},{1,2,3,4,5,6,7,8,9,10,13,14,15,19,20,21,22,23,24,25,27,29,30,32,33,38,39,41,42,43,45,46,49,54,55,57,58,59,60,68,69,71,72,73,74,75,76,78,79,80,81,82,83,84,85,86,87,88,89,90,92,95,96,97,98,99,104,105,106,107,108,109,110,111,112,114,115,117,118,120,121,122,125,126,128,129,130,131,132,133,134,135,139,140,141,142,143,144,145,146,148,149,150,152,154,155,156,157,158,160,161,163,164,165,166,167,169,170,174,175,176,177,178,179,180,182,183,184,185,186,187,188,189,190,194,195,196,197,198,199,200,204,205,206,207,208,209},{7,14,15,19,20,33,43,54,68,74,75,96,97,98,99,112,114,117,123,124,135,143,148,149,150,158,166,171,180,181,182,196,198,199,200,207},{2,14,15,33,74,75,88,90,96,97,98,108,112,123,124,135,139,146,148,149,150,158,160,161,166,171,181,194,198,199,200,204,207},{0,16,34,35,36,37,53,65,66,100,101,102,103,116,119,123,136,137,138,151,159,168,171,172,173,181,191,192,193,198,201},{4,14,15,21,22,33,74,75,76,96,97,98,99,112,123,124,135,140,148,149,150,158,166,171,181,183,198,199,200,207,208},{5,14,15,33,54,74,75,87,96,97,98,99,112,114,115,123,124,135,148,149,150,152,158,166,171,175,181,198,199,200,207},{14,15,33,54,74,75,87,96,97,98,99,112,115,118,123,124,135,144,148,149,150,152,155,158,166,171,181,198,199,200,207},{14,15,23,24,33,39,74,75,96,97,98,112,123,124,135,145,148,149,150,158,163,166,170,171,181,186,187,198,199,200,207},{14,15,33,74,75,76,81,96,97,98,99,112,123,124,135,140,148,149,150,158,166,171,181,183,198,199,200,207,208},{14,16,32,33,53,60,74,75,85,96,97,98,100,124,135,137,148,149,150,151,157,165,171,181,198,199,200,207},{14,16,33,53,74,75,96,97,98,100,123,124,135,137,148,149,150,151,171,173,181,193,198,199,200,207},{1,2,3,4,5,6,7,8,9,10,12,13,14,15,17,18,19,20,21,22,23,24,25,27,29,30,32,33,34,38,39,40,41,42,43,45,46,49,54,55,56,57,58,59,60,68,69,71,72,73,74,75,76,78,79,80,81,82,83,84,85,86,87,88,89,90,92,95,96,97,98,99,104,105,106,107,108,109,110,111,112,114,115,117,118,120,121,122,124,125,126,128,129,130,131,132,133,134,139,140,141,142,143,144,145,146,148,149,150,152,154,155,156,157,158,160,161,163,164,165,166,167,169,170,174,175,176,177,178,179,180,182,183,184,185,186,187,188,189,190,194,195,196,197,198,199,200,201,204,205,206,207,208,209},{0,11,16,17,18,26,28,31,34,35,36,37,40,44,47,48,50,51,52,53,56,61,62,63,64,65,66,67,70,74,77,91,93,94,100,101,102,103,113,116,119,123,127,137,138,147,148,149,150,151,153,159,162,168,171,172,173,181,191,192,193,198,199,200,201,202,203,207},{0,11,12,16,17,18,26,28,31,34,35,36,37,40,44,47,48,50,51,52,53,56,60,61,62,63,64,65,66,67,70,77,91,93,94,100,101,102,103,111,113,116,119,123,127,133,134,136,138,147,151,153,159,162,165,168,171,172,173,181,191,192,193,201,202,203},{0,16,26,28,31,34,35,36,37,44,47,48,53,61,62,63,65,66,67,70,74,77,91,93,100,101,102,103,113,116,119,123,127,136,137,147,149,150,151,153,159,162,168,171,172,173,181,191,192,193,198,199,200,201,202,203,207},{2,14,15,29,30,33,45,74,75,88,90,96,97,98,108,112,123,124,126,135,146,148,149,150,158,160,161,166,171,178,181,194,198,199,200,204,207},{4,14,15,21,22,33,46,74,75,76,81,92,96,97,98,99,112,123,124,128,132,135,148,149,150,158,166,171,181,183,198,199,200,207,208},{14,15,33,55,59,74,75,96,97,98,104,109,112,121,123,124,135,148,149,150,158,166,167,171,174,179,181,184,185,195,198,199,200,207},{3,14,33,57,74,75,78,80,96,97,98,106,112,123,124,135,148,149,150,156,158,166,169,171,181,189,198,199,200,205,206,207},{14,15,19,20,33,54,74,75,96,97,98,99,112,114,117,123,124,125,135,148,149,150,158,166,171,181,182,198,199,200,207},{14,15,33,54,74,75,87,96,97,98,99,112,114,115,118,123,124,130,135,148,149,150,152,158,166,171,181,198,199,200,207},{14,15,23,24,33,39,74,75,96,97,98,112,123,124,131,135,148,149,150,158,163,166,170,171,181,186,187,198,199,200,207},{14,15,33,74,75,88,90,96,97,98,108,112,123,124,126,135,139,148,149,150,158,160,161,166,171,181,194,198,199,200,207},{16,34,35,36,44,53,77,100,101,102,103,113,123,136,137,138,151,153,159,171,172,173,181,191,192,193,198,201,202,203},{1,2,3,4,5,6,7,8,9,10,12,13,14,15,17,18,19,20,21,22,23,24,25,27,29,30,32,33,34,35,38,39,40,41,42,43,45,46,49,54,55,56,57,58,59,60,68,69,71,72,73,74,75,76,78,79,80,81,82,83,84,85,86,87,88,89,90,92,95,96,97,98,99,104,105,106,107,108,109,110,111,112,114,115,117,118,120,121,122,124,125,126,128,129,130,131,132,133,134,135,136,139,140,141,142,143,144,145,146,149,150,152,154,155,156,157,158,160,161,163,164,165,166,167,169,170,174,175,176,177,178,179,180,182,183,184,185,186,187,188,189,190,194,195,196,197,198,199,200,201,204,205,206,207,208,209},{1,2,3,4,5,6,7,8,9,10,13,14,15,19,20,21,22,23,24,25,27,29,30,32,33,34,35,38,39,41,42,43,45,46,49,54,55,57,58,59,60,68,69,71,72,73,74,75,76,78,79,80,81,82,83,84,85,86,87,88,89,90,92,95,96,97,98,99,103,104,105,106,107,108,109,110,111,112,113,114,115,117,118,120,121,122,124,125,126,128,129,130,131,132,133,134,135,136,138,139,140,141,142,143,144,145,146,148,150,152,154,155,156,157,158,159,160,161,163,164,165,166,167,169,170,174,175,176,177,178,179,180,182,183,184,185,186,187,188,189,190,194,195,196,197,198,199,200,201,202,204,205,206,207,208,209},{1,2,3,4,5,6,7,8,9,10,13,14,15,19,20,21,22,23,24,25,27,29,30,32,33,34,35,38,39,41,42,43,45,46,49,54,55,57,58,59,60,68,69,71,72,73,74,75,76,78,79,80,81,82,83,84,85,86,87,88,89,90,92,95,96,97,98,99,103,104,105,106,107,108,109,110,111,112,113,114,115,117,118,120,121,122,124,125,126,128,129,130,131,132,133,134,135,136,138,139,140,141,142,143,144,145,146,148,149,152,154,155,156,157,158,159,160,161,163,164,165,166,167,169,170,174,175,176,177,178,179,180,182,183,184,185,186,187,188,189,190,194,195,196,197,198,199,200,201,202,204,205,206,207,208,209},{0,11,12,16,17,18,26,28,31,34,35,36,37,40,44,47,48,50,51,52,53,56,60,61,62,63,64,65,66,67,70,77,85,86,91,93,94,100,101,102,103,111,113,116,119,123,127,133,134,136,137,138,147,153,157,159,162,165,168,171,172,173,181,191,192,193,201,202,203},{5,6,14,15,25,33,41,54,58,74,75,79,87,96,97,98,99,107,112,114,115,118,120,123,124,129,130,135,144,148,149,150,155,158,166,171,175,181,182,188,198,199,200,207},{16,28,34,35,36,44,53,61,62,67,77,100,101,102,103,113,123,136,137,138,147,151,159,162,171,172,173,181,191,192,193,198,201,202,203},{1,14,15,33,38,69,74,75,89,96,97,98,105,112,123,124,135,148,149,150,158,164,166,171,176,177,181,198,199,200,207,209},{6,14,15,33,54,74,75,79,87,96,97,98,99,112,118,123,124,130,135,148,149,150,152,158,166,171,181,198,199,200,207},{3,14,33,57,74,75,78,96,97,98,106,112,123,124,135,142,148,149,150,158,166,169,171,181,189,198,199,200,205,206,207},{14,16,32,33,53,60,74,75,85,96,97,98,100,124,133,135,148,149,150,151,165,171,181,198,199,200,207},{1,2,3,4,5,6,7,8,9,10,14,15,19,20,21,22,23,24,25,27,29,30,33,38,39,41,42,43,45,46,49,53,54,55,57,58,59,68,69,71,72,73,74,75,76,78,79,80,81,82,83,84,87,88,89,90,92,95,96,97,98,99,101,102,104,105,106,107,108,109,110,112,114,115,117,118,120,121,122,123,124,125,126,128,129,130,131,132,135,139,140,141,142,143,144,145,146,148,149,150,152,154,155,156,160,161,163,164,166,167,169,170,171,172,174,175,176,177,178,179,180,181,182,183,184,185,186,187,188,189,190,191,192,194,195,196,197,198,199,200,204,205,206,207,208,209},{0,11,16,17,18,26,28,31,34,35,36,37,40,44,47,48,50,51,52,53,56,61,62,63,64,65,66,67,70,74,77,91,93,94,100,101,102,103,113,116,119,123,127,136,137,138,147,149,150,151,153,162,168,171,172,173,181,191,192,193,198,199,200,201,202,203,207},{2,14,15,29,30,33,45,74,75,88,90,96,97,98,108,112,123,124,126,135,139,146,148,149,150,158,161,166,171,178,181,194,198,199,200,204,207},{2,14,15,33,45,74,75,88,90,96,97,98,108,112,123,124,126,135,139,146,148,149,150,158,160,166,171,178,181,194,198,199,200,204,207},{16,34,35,36,47,53,61,62,67,77,100,101,102,103,113,123,136,137,138,151,153,159,171,172,173,181,191,192,193,198,201,202,203},{14,15,23,24,33,39,74,75,96,97,98,112,123,124,131,135,145,148,149,150,158,166,170,171,181,186,187,198,199,200,207},{1,14,15,33,38,74,75,89,96,97,98,105,112,123,124,135,148,149,150,154,158,166,171,176,177,181,198,199,200,207,209},{14,16,32,33,53,60,74,75,85,96,97,98,100,124,133,135,137,148,149,150,151,157,171,173,181,198,199,200,207},{1,2,3,4,5,6,7,8,9,10,14,15,19,20,21,22,23,24,25,27,29,30,33,38,39,41,42,43,45,46,49,53,54,55,57,58,59,68,69,71,72,73,74,75,76,78,79,80,81,82,83,84,87,88,89,90,92,95,96,97,98,99,101,102,104,105,106,107,108,109,110,112,114,115,117,118,120,121,122,123,124,125,126,128,129,130,131,132,135,139,140,141,142,143,144,145,146,148,149,150,152,154,155,156,158,160,161,163,164,167,169,170,171,172,174,175,176,177,178,179,180,181,182,183,184,185,186,187,188,189,190,191,192,194,195,196,197,198,199,200,204,205,206,207,208,209},{9,14,15,27,33,42,55,59,74,75,96,97,98,104,109,110,112,121,123,124,135,141,148,149,150,158,166,171,174,179,181,184,185,195,198,199,200,207},{0,16,26,34,35,36,37,53,65,66,100,101,102,103,116,119,123,127,136,137,138,151,159,171,172,173,181,191,192,193,198,201},{3,14,33,57,74,75,78,80,96,97,98,106,112,123,124,135,142,148,149,150,156,158,166,171,181,189,198,199,200,205,206,207},{14,15,23,24,33,39,74,75,96,97,98,112,123,124,131,135,145,148,149,150,158,163,166,171,181,186,187,198,199,200,207},{0,1,2,3,4,5,6,7,8,9,10,11,12,13,15,16,17,18,19,20,21,22,23,24,25,26,27,28,29,30,31,32,34,35,36,37,38,39,40,41,42,43,44,45,46,47,48,49,50,51,52,53,54,55,56,57,58,59,60,61,62,63,64,65,66,67,68,69,70,71,72,73,76,77,78,79,80,81,82,83,84,85,86,87,88,89,90,91,92,93,94,95,99,100,101,102,103,104,105,106,107,108,109,110,111,112,113,114,115,116,117,118,119,120,121,122,123,125,126,127,128,129,130,131,132,133,134,136,137,138,139,140,141,142,143,144,145,146,147,151,152,153,154,155,156,157,158,159,160,161,162,163,164,165,166,167,168,169,170,172,173,174,175,176,177,178,179,180,181,182,183,184,185,186,187,188,189,190,191,192,193,194,195,196,197,201,202,203,204,205,206,208,209},{0,8,11,12,15,16,17,18,26,28,31,34,35,36,37,40,44,47,48,49,50,51,52,53,56,61,62,63,64,65,66,67,70,77,91,93,94,99,100,101,102,103,112,113,116,119,122,123,127,136,137,138,147,151,153,158,159,162,166,168,171,173,181,190,191,192,193,197,201,202,203},{0,11,12,16,17,18,26,28,31,34,35,36,37,40,44,47,48,50,51,52,53,56,60,61,62,63,64,65,66,67,70,77,91,93,94,100,101,102,103,113,116,119,123,127,134,136,137,138,147,151,153,159,162,165,168,171,172,181,191,192,193,201,202,203},{9,14,15,27,33,42,55,59,74,75,96,97,98,104,109,110,112,121,123,124,135,141,148,149,150,158,166,167,171,179,181,184,185,195,198,199,200,207},{5,14,15,25,33,41,54,58,74,75,87,96,97,98,99,107,112,114,115,123,124,129,135,148,149,150,152,158,166,171,181,182,188,198,199,200,207},{1,14,15,33,38,74,75,89,96,97,98,105,112,123,124,135,148,149,150,154,158,164,166,171,177,181,198,199,200,207,209},{1,14,15,33,38,74,75,89,96,97,98,105,112,123,124,135,148,149,150,154,158,164,166,171,176,181,198,199,200,207,209},{2,14,15,33,45,74,75,88,96,97,98,112,123,124,135,139,148,149,150,158,160,161,166,171,181,194,198,199,200,204,207},{14,15,33,55,59,74,75,96,97,98,104,112,123,124,135,141,148,149,150,158,166,167,171,174,181,185,195,198,199,200,207},{7,14,15,33,54,74,75,96,97,98,99,112,114,117,123,124,125,135,148,149,150,158,166,171,181,182,198,199,200,207},{0,1,2,3,4,5,6,7,8,9,10,11,12,13,15,16,17,18,19,20,21,22,23,24,25,26,27,28,29,30,31,32,34,35,36,37,38,39,40,41,42,43,44,45,46,47,48,49,50,51,52,53,54,55,56,57,58,59,60,61,62,63,64,65,66,67,68,69,70,71,72,73,76,77,78,79,80,81,82,83,84,85,86,87,88,89,90,91,92,93,94,95,99,100,101,102,103,104,105,106,107,108,109,110,111,112,113,114,115,116,117,118,119,120,121,122,123,125,126,127,128,129,130,131,132,133,134,136,137,138,139,140,141,142,143,144,145,146,147,151,152,153,154,155,156,157,158,159,160,161,162,163,164,165,166,167,168,169,170,171,172,173,174,175,176,177,178,179,180,182,183,184,185,186,187,188,189,190,191,192,193,194,195,196,197,201,202,203,204,205,206,208,209},{7,14,15,19,20,25,33,43,54,58,68,74,75,87,96,97,98,99,112,114,117,123,124,125,135,143,148,149,150,152,158,166,171,175,180,181,188,196,198,199,200,207},{4,14,15,21,22,33,46,74,75,76,81,82,83,92,96,97,98,99,112,123,124,128,132,135,140,148,149,150,158,166,171,181,198,199,200,207,208},{9,14,15,27,33,42,55,74,75,96,97,98,104,109,110,112,121,123,124,135,141,148,149,150,158,166,167,171,174,181,185,198,199,200,207},{14,15,33,55,59,74,75,96,97,98,104,109,112,123,124,135,141,148,149,150,158,166,167,171,174,179,181,184,195,198,199,200,207},{14,15,23,24,33,39,74,75,96,97,98,112,123,124,131,135,145,148,149,150,158,163,166,170,171,181,187,198,199,200,207},{14,15,23,24,33,39,74,75,96,97,98,112,123,124,131,135,145,148,149,150,158,163,166,170,171,181,186,198,199,200,207},{14,15,25,33,54,74,75,87,96,97,98,99,112,114,123,124,135,148,149,150,152,158,166,171,175,181,182,198,199,200,207},{3,14,33,57,74,75,78,96,97,98,106,112,123,124,135,142,148,149,150,156,158,166,169,171,181,198,199,200,205,206,207},{8,14,15,33,74,75,96,97,98,99,112,122,123,124,135,148,149,150,158,166,171,172,181,191,197,198,199,200,207},{0,8,11,12,15,16,17,18,26,28,31,34,35,36,37,40,44,47,48,49,50,51,52,53,56,61,62,63,64,65,66,67,70,77,91,93,94,99,100,101,102,103,112,113,116,119,122,123,127,136,137,138,147,151,153,158,159,162,166,168,171,172,173,181,190,192,193,197,201,202,203},{0,11,12,15,16,17,18,26,28,31,34,35,36,37,40,44,47,48,49,50,51,52,53,56,61,62,63,64,65,66,67,70,77,91,93,94,99,100,101,102,103,112,113,116,119,123,127,136,137,138,147,151,153,158,159,162,166,168,171,172,173,181,191,193,197,201,202,203},{0,11,12,16,17,18,26,28,31,34,35,36,37,40,44,47,48,50,51,52,53,56,60,61,62,63,64,65,66,67,70,77,91,93,94,100,101,102,103,113,116,119,123,127,134,136,137,138,147,151,153,159,162,168,171,172,173,181,191,192,201,202,203},{2,14,15,29,30,33,45,74,75,88,90,96,97,98,108,112,123,124,126,135,139,146,148,149,150,158,160,161,166,171,178,181,198,199,200,204,207},{14,15,33,55,59,74,75,96,97,98,104,112,123,124,135,141,148,149,150,158,166,167,171,174,179,181,185,198,199,200,207},{14,15,33,43,54,68,74,75,96,97,98,99,112,114,123,124,125,135,148,149,150,158,166,171,181,182,198,199,200,207},{8,14,15,33,74,75,96,97,98,99,112,122,123,124,135,148,149,150,158,166,171,172,181,190,191,192,198,199,200,207},{0,1,2,3,4,5,6,7,8,9,10,11,12,13,14,15,17,18,19,20,21,22,23,24,25,26,27,28,29,30,31,32,33,34,35,37,38,39,40,41,42,43,44,45,46,47,48,49,50,51,52,54,55,56,57,58,59,60,61,62,63,64,65,66,67,68,69,70,71,72,73,74,75,76,77,78,79,80,81,82,83,84,85,86,87,88,89,90,91,92,93,94,95,96,97,98,99,103,104,105,106,107,108,109,110,111,112,113,114,115,116,117,118,119,120,121,122,124,125,126,127,128,129,130,131,132,133,134,135,136,138,139,140,141,142,143,144,145,146,147,148,149,150,152,153,154,155,156,157,158,159,160,161,162,163,164,165,166,167,168,169,170,174,175,176,177,178,179,180,182,183,184,185,186,187,188,189,190,194,195,196,197,199,200,201,202,203,204,205,206,207,208,209},{1,2,3,4,5,6,7,8,9,10,13,14,15,19,20,21,22,23,24,25,27,29,30,32,33,34,35,38,39,41,42,43,45,46,49,54,55,57,58,59,60,68,69,71,72,73,74,75,76,78,79,80,81,82,83,84,85,86,87,88,89,90,92,95,96,97,98,99,103,104,105,106,107,108,109,110,111,112,113,114,115,117,118,120,121,122,124,125,126,128,129,130,131,132,133,134,135,136,138,139,140,141,142,143,144,145,146,148,149,150,152,154,155,156,157,158,159,160,161,163,164,165,166,167,169,170,174,175,176,177,178,179,180,182,183,184,185,186,187,188,189,190,194,195,196,197,198,200,201,202,204,205,206,207,208,209},{1,2,3,4,5,6,7,8,9,10,13,14,15,19,20,21,22,23,24,25,27,29,30,32,33,34,35,38,39,41,42,43,45,46,49,54,55,57,58,59,60,68,69,71,72,73,74,75,76,78,79,80,81,82,83,84,85,86,87,88,89,90,92,95,96,97,98,99,103,104,105,106,107,108,109,110,111,112,113,114,115,117,118,120,121,122,124,125,126,128,129,130,131,132,133,134,135,136,138,139,140,141,142,143,144,145,146,148,149,150,152,154,155,156,157,158,159,160,161,163,164,165,166,167,169,170,174,175,176,177,178,179,180,182,183,184,185,186,187,188,189,190,194,195,196,197,198,199,201,202,204,205,206,207,208,209},{0,11,16,17,18,26,28,31,34,35,36,37,40,44,47,48,50,51,52,53,56,61,62,63,64,65,66,67,70,74,77,91,93,94,96,100,101,102,103,113,116,119,123,127,135,136,137,138,147,148,149,150,151,153,159,162,168,171,172,173,181,191,192,193,198,199,200,202,203,207},{16,28,34,35,36,44,47,48,51,53,61,62,63,67,70,74,77,91,93,94,100,101,102,103,113,123,136,137,138,147,149,150,151,153,159,162,171,172,173,181,191,192,193,198,199,200,201,203,207},{16,28,34,35,36,44,53,61,62,67,77,100,101,102,103,113,123,136,137,138,147,151,153,159,162,171,172,173,181,191,192,193,198,201,202},{2,14,15,29,30,33,45,74,75,88,96,97,98,112,123,124,126,135,139,148,149,150,158,160,161,166,171,178,181,194,198,199,200,207},{3,14,33,57,74,75,78,80,96,97,98,106,112,123,124,135,142,148,149,150,156,158,166,169,171,181,189,198,199,200,206,207},{3,14,33,57,74,75,78,80,96,97,98,106,112,123,124,135,142,148,149,150,156,158,166,169,171,181,189,198,199,200,205,207},{1,2,3,4,5,6,7,8,9,10,13,14,15,19,20,21,22,23,24,25,27,29,30,32,33,34,35,38,39,41,42,43,45,46,49,54,55,57,58,59,60,68,69,71,72,73,74,75,76,78,79,80,81,82,83,84,85,86,87,88,89,90,92,95,96,97,98,99,103,104,105,106,107,108,109,110,111,112,113,114,115,117,118,120,121,122,124,125,126,128,129,130,131,132,133,134,135,136,138,139,140,141,142,143,144,145,146,148,149,150,152,154,155,156,157,158,159,160,161,163,164,165,166,167,169,170,174,175,176,177,178,179,180,182,183,184,185,186,187,188,189,190,194,195,196,197,198,199,200,201,202,204,205,206,208,209},{4,14,15,21,22,33,46,74,75,76,81,92,96,97,98,99,112,123,124,128,132,135,140,148,149,150,158,166,171,181,183,198,199,200,207},{1,14,15,33,38,69,74,75,89,96,97,98,105,112,123,124,135,148,149,150,154,158,164,166,171,176,177,181,198,199,200,207}];
weights=[19,19,19,19,19,19,19,19,19,19,19,19,19,19,18,18,18,18,18,18,18,18,18,18,18,18,18,18,18,18,18,18,18,17,17,17,17,17,17,17,17,17,17,17,17,17,17,17,17,17,17,17,17,16,16,16,16,16,16,16,16,16,16,16,16,15,15,15,15,15,15,15,15,15,14,14,14,14,14,14,14,14,14,14,14,14,14,13,13,13,13,13,13,13,13,13,12,12,12,12,12,12,12,12,12,12,12,12,12,12,12,12,11,11,11,11,11,11,11,11,11,11,11,10,10,10,10,10,10,10,10,10,10,10,10,9,9,9,9,9,9,9,9,9,9,9,9,9,8,8,8,8,8,8,8,8,8,8,7,7,7,7,7,7,7,7,6,6,6,6,6,5,5,5,5,5,5,5,5,5,5,4,4,4,4,4,4,4,4,4,4,3,3,3,3,3,3,3,2,2,2,2,2,2,2,2,2,1,1,1];
